p cnf 42 23
-5 -9 0
5 9 0
-7 -10 0
7 10 0
-3 -11 0
3 11 0
-2 -12 0
2 12 0
6 -13 0
9 -13 0
-6 -9 13 0
1 -14 0
7 -14 0
-1 -7 14 0
14 -15 0
3 -15 0
-14 -3 15 0
15 -16 0
10 -16 0
-15 -10 16 0
2 -17 0
11 -17 0
-2 -11 17 0
8 -18 0
1 -18 0
-8 -1 18 0
18 -19 0
12 -19 0
-18 -12 19 0
-13 20 0
-16 20 0
13 16 -20 0
-20 21 0
-17 21 0
20 17 -21 0
-21 22 0
-4 22 0
21 4 -22 0
-22 23 0
-19 23 0
22 19 -23 0
23 0
-23 -1 -2 -3 -4 -22 -5 -6 -7 -14 -8 -15 -18 12 11 19 17 9 13 10 16 20 21 0
-23 -1 -2 -3 -4 -22 -5 -6 -7 -14 -15 12 11 19 17 9 13 10 8 18 16 20 21 0
-23 -1 -2 -3 -4 -22 -5 -6 -10 -8 -18 12 11 19 17 9 13 7 14 15 16 20 21 0
-23 -1 -2 -3 -4 -22 -5 -6 -10 12 11 19 17 9 13 7 14 8 18 15 16 20 21 0
-23 -1 -2 -3 -4 -22 -5 -7 -14 -8 -15 -18 12 11 19 17 9 6 13 10 16 20 21 0
-23 -1 -2 -3 -4 -22 -5 -7 -14 -15 12 11 19 17 9 6 13 10 8 18 16 20 21 0
-23 -1 -2 -3 -4 -22 -5 -10 -8 -18 12 11 19 17 9 6 13 7 14 15 16 20 21 0
-23 -1 -2 -3 -4 -22 -5 -10 12 11 19 17 9 6 13 7 14 8 18 15 16 20 21 0
-23 -1 -2 -3 -4 -22 -9 -6 -13 -7 -14 -20 -8 -15 -18 -21 12 11 19 17 5 10 16 0
-23 -1 -2 -3 -4 -22 -9 -6 -13 -7 -14 -20 -15 -21 12 11 19 17 5 10 8 16 18 0
-23 -1 -2 -3 -4 -22 -9 -6 -13 -10 -20 -8 -18 -21 12 11 19 17 5 7 14 15 16 0
-23 -1 -2 -3 -4 -22 -9 -6 -13 -10 -20 -21 12 11 19 17 5 7 14 8 18 15 16 0
-23 -1 -2 -3 -4 -22 -9 -7 -14 -8 -15 -18 12 11 19 17 5 6 13 10 16 20 21 0
-23 -1 -2 -3 -4 -22 -9 -7 -14 -15 12 11 19 17 5 6 13 10 8 18 16 20 21 0
-23 -1 -2 -3 -4 -22 -9 -10 -8 -18 12 11 19 17 5 6 13 7 14 15 16 20 21 0
-23 -1 -2 -3 -4 -22 -9 -10 12 11 19 17 5 6 13 7 14 8 18 15 16 20 21 0
-23 -1 -2 -3 -22 -9 -21 -6 -13 -20 -7 -14 -8 -15 -18 12 11 19 4 17 5 10 16 0
-23 -1 -2 -3 -22 -9 -21 -6 -13 -20 -7 -14 -15 12 11 19 4 17 5 10 8 16 18 0
-23 -1 -2 -3 -22 -9 -21 -6 -13 -20 -10 -8 -18 12 11 19 4 17 5 7 14 15 16 0
-23 -1 -2 -3 -22 -9 -21 -6 -13 -20 -10 12 11 19 4 17 5 7 14 8 18 15 16 0
-23 -1 -2 -11 -4 -22 -17 -5 -21 -6 -7 -14 -8 -18 12 3 15 19 16 9 13 10 20 0
-23 -1 -2 -11 -4 -17 -22 -5 -21 -6 -7 -14 12 3 15 19 16 9 13 10 20 8 18 0
-23 -1 -2 -11 -4 -17 -22 -5 -21 -6 -10 -8 -18 12 3 15 19 16 9 13 7 14 20 0
-23 -1 -2 -11 -4 -17 -22 -5 -21 -6 -10 12 3 15 19 16 9 13 7 14 20 8 18 0
-23 -1 -2 -11 -4 -17 -22 -5 -21 -7 -14 -8 -18 12 3 15 19 16 9 6 13 10 20 0
-23 -1 -2 -11 -4 -17 -22 -5 -21 -7 -14 12 3 15 19 16 9 6 13 10 20 8 18 0
-23 -1 -2 -11 -4 -17 -22 -5 -21 -10 -8 -18 12 3 15 19 16 9 6 13 7 14 20 0
-23 -1 -2 -11 -4 -17 -22 -5 -21 -10 12 3 15 19 16 9 6 13 7 14 20 8 18 0
-23 -1 -2 -11 -4 -17 -22 -21 -9 -6 -13 -7 -14 -20 -8 -18 12 3 15 19 16 5 10 0
-23 -1 -2 -11 -4 -17 -22 -9 -21 -6 -13 -7 -14 -20 12 3 15 19 16 5 10 8 18 0
-23 -1 -2 -11 -4 -17 -22 -9 -21 -6 -13 -10 -20 -8 -18 12 3 15 19 16 5 7 14 0
-23 -1 -2 -11 -4 -17 -22 -9 -21 -6 -13 -10 -20 12 3 15 19 16 5 7 14 8 18 0
-23 -1 -2 -11 -4 -17 -22 -9 -21 -7 -14 -8 -18 12 3 15 19 16 5 6 13 10 20 0
-23 -1 -2 -11 -4 -17 -22 -9 -21 -7 -14 12 3 15 19 16 5 6 13 10 20 8 18 0
-23 -1 -2 -11 -4 -17 -22 -9 -21 -10 -8 -18 12 3 15 19 16 5 6 13 7 14 20 0
-23 -1 -2 -11 -4 -17 -22 -9 -21 -10 12 3 15 19 16 5 6 13 7 14 20 8 18 0
-23 -1 -2 -11 -17 -22 -5 -21 -6 -7 -14 -8 -18 12 3 15 19 4 16 9 13 10 20 0
-23 -1 -2 -11 -17 -22 -5 -21 -6 -7 -14 12 3 15 19 4 16 9 13 10 20 8 18 0
-23 -1 -2 -11 -17 -22 -5 -21 -6 -10 -8 -18 12 3 15 19 4 16 9 13 7 14 20 0
-23 -1 -2 -11 -17 -22 -5 -21 -6 -10 12 3 15 19 4 16 9 13 7 14 20 8 18 0
-23 -1 -2 -11 -17 -22 -5 -21 -7 -14 -8 -18 12 3 15 19 4 16 9 6 13 10 20 0
-23 -1 -2 -11 -17 -22 -5 -21 -7 -14 12 3 15 19 4 16 9 6 13 10 20 8 18 0
-23 -1 -2 -11 -17 -22 -5 -21 -10 -8 -18 12 3 15 19 4 16 9 6 13 7 14 20 0
-23 -1 -2 -11 -17 -22 -5 -21 -10 12 3 15 19 4 16 9 6 13 7 14 20 8 18 0
-23 -1 -2 -11 -17 -22 -21 -9 -6 -13 -7 -14 -20 -8 -18 12 3 15 19 4 16 5 10 0
-23 -1 -2 -11 -17 -22 -9 -21 -6 -13 -7 -14 -20 12 3 15 19 4 16 5 10 8 18 0
-23 -1 -2 -11 -17 -22 -9 -21 -6 -13 -10 -20 -8 -18 12 3 15 19 4 16 5 7 14 0
-23 -1 -2 -11 -17 -22 -9 -21 -6 -13 -10 -20 12 3 15 19 4 16 5 7 14 8 18 0
-23 -1 -2 -11 -17 -22 -9 -21 -7 -14 -8 -18 12 3 15 19 4 16 5 6 13 10 20 0
-23 -1 -2 -11 -17 -22 -9 -21 -7 -14 12 3 15 19 4 16 5 6 13 10 20 8 18 0
-23 -1 -2 -11 -17 -22 -9 -21 -10 -8 -18 12 3 15 19 4 16 5 6 13 7 14 20 0
-23 -1 -2 -11 -17 -22 -9 -21 -10 12 3 15 19 4 16 5 6 13 7 14 20 8 18 0
-23 -1 -12 -3 -4 -22 -5 -6 -7 -14 -8 -15 -18 -19 2 17 11 9 13 10 16 20 21 0
-23 -1 -12 -3 -4 -22 -5 -6 -7 -14 -15 2 17 11 9 13 10 8 16 18 19 20 21 0
-23 -1 -12 -3 -4 -22 -5 -6 -10 -8 -18 -19 2 17 11 9 13 7 14 15 16 20 21 0
-23 -1 -12 -3 -4 -22 -5 -6 -10 2 17 11 9 13 7 14 8 15 18 19 16 20 21 0
-23 -1 -12 -3 -4 -22 -5 -7 -14 -8 -15 -18 -19 2 17 11 9 6 13 10 16 20 21 0
-23 -1 -12 -3 -4 -22 -5 -7 -14 -15 2 17 11 9 6 13 10 8 16 18 19 20 21 0
-23 -1 -12 -3 -4 -22 -5 -10 -8 -18 -19 2 17 11 9 6 13 7 14 15 16 20 21 0
-23 -1 -12 -3 -4 -22 -5 -10 2 17 11 9 6 13 7 14 8 15 18 19 16 20 21 0
-23 -1 -12 -3 -4 -22 -9 -6 -13 -7 -14 -20 -8 -15 -21 -18 -19 2 17 11 5 10 16 0
-23 -1 -12 -3 -4 -22 -9 -6 -13 -7 -14 -20 -15 -21 2 17 11 5 10 8 16 18 19 0
-23 -1 -12 -3 -4 -22 -9 -6 -13 -10 -20 -8 -21 -18 -19 2 17 11 5 7 14 15 16 0
-23 -1 -12 -3 -4 -22 -9 -6 -13 -10 -20 -21 2 17 11 5 7 14 8 15 18 16 19 0
-23 -1 -12 -3 -4 -22 -9 -7 -14 -8 -15 -18 -19 2 17 11 5 6 13 10 16 20 21 0
-23 -1 -12 -3 -4 -22 -9 -7 -14 -15 2 17 11 5 6 13 10 8 16 18 19 20 21 0
-23 -1 -12 -3 -4 -22 -9 -10 -8 -18 -19 2 17 11 5 6 13 7 14 15 16 20 21 0
-23 -1 -12 -3 -4 -22 -9 -10 2 17 11 5 6 13 7 14 8 15 18 19 16 20 21 0
-23 -1 -12 -3 -5 -6 -7 -14 -8 -15 -18 -19 2 17 11 4 9 13 10 16 20 21 22 0
-23 -1 -12 -3 -5 -6 -10 -8 -18 -19 2 17 11 4 9 13 7 14 15 16 20 21 22 0
-23 -1 -12 -3 -5 -7 -14 -8 -15 -18 -19 2 17 11 4 9 6 13 10 16 20 21 22 0
-23 -1 -12 -3 -5 -10 -8 -18 -19 2 17 11 4 9 6 13 7 14 15 16 20 21 22 0
-23 -1 -12 -3 -9 -6 -13 -7 -14 -20 -8 -15 -18 -21 -19 -22 2 17 11 4 5 10 16 0
-23 -1 -12 -3 -9 -6 -13 -7 -14 -20 -15 -21 -22 2 17 11 4 5 10 8 16 18 19 0
-23 -1 -12 -3 -9 -6 -13 -10 -20 -8 -18 -21 -19 -22 2 17 11 4 5 7 14 15 16 0
-23 -1 -12 -3 -9 -6 -13 -10 -20 -21 -22 2 17 11 4 5 7 14 8 15 18 16 19 0
-23 -1 -12 -3 -9 -7 -14 -8 -15 -18 -19 2 17 11 4 5 6 13 10 16 20 21 22 0
-23 -1 -12 -3 -9 -10 -8 -18 -19 2 17 11 4 5 6 13 7 14 15 16 20 21 22 0
-23 -1 -12 -11 -4 -22 -5 -6 -7 -14 -8 -18 -19 2 17 3 15 16 9 13 10 20 21 0
-23 -1 -12 -11 -4 -22 -5 -6 -7 -14 2 17 3 15 16 9 13 10 20 8 21 18 19 0
-23 -1 -12 -11 -4 -22 -5 -6 -10 -8 -18 -19 2 17 3 15 16 9 13 7 14 20 21 0
-23 -1 -12 -11 -4 -22 -5 -6 -10 2 17 3 15 16 9 13 7 14 20 8 21 18 19 0
-23 -1 -12 -11 -4 -22 -5 -7 -14 -8 -18 -19 2 17 3 15 16 9 6 13 10 20 21 0
-23 -1 -12 -11 -4 -22 -5 -7 -14 2 17 3 15 16 9 6 13 10 20 8 21 18 19 0
-23 -1 -12 -11 -4 -22 -5 -10 -8 -18 -19 2 17 3 15 16 9 6 13 7 14 20 21 0
-23 -1 -12 -11 -4 -22 -5 -10 2 17 3 15 16 9 6 13 7 14 20 8 21 18 19 0
-23 -1 -12 -11 -4 -22 -9 -6 -13 -7 -14 -20 -8 -21 -18 -19 2 17 3 15 16 5 10 0
-23 -1 -12 -11 -4 -22 -9 -6 -13 -7 -14 -20 -21 2 17 3 15 16 5 10 8 18 19 0
-23 -1 -12 -11 -4 -22 -9 -6 -13 -10 -20 -8 -21 -18 -19 2 17 3 15 16 5 7 14 0
-23 -1 -12 -11 -4 -22 -9 -6 -13 -10 -20 -21 2 17 3 15 16 5 7 14 8 18 19 0
-23 -1 -12 -11 -4 -22 -9 -7 -14 -8 -18 -19 2 17 3 15 16 5 6 13 10 20 21 0
-23 -1 -12 -11 -4 -22 -9 -7 -14 2 17 3 15 16 5 6 13 10 20 8 21 18 19 0
-23 -1 -12 -11 -4 -22 -9 -10 -8 -18 -19 2 17 3 15 16 5 6 13 7 14 20 21 0
-23 -1 -12 -11 -4 -22 -9 -10 2 17 3 15 16 5 6 13 7 14 20 8 21 18 19 0
-23 -1 -12 -11 -5 -6 -7 -14 -8 -18 -19 2 17 3 15 4 16 9 13 10 20 21 22 0
-23 -1 -12 -11 -5 -6 -10 -8 -18 -19 2 17 3 15 4 16 9 13 7 14 20 21 22 0
-23 -1 -12 -11 -5 -7 -14 -8 -18 -19 2 17 3 15 4 16 9 6 13 10 20 21 22 0
-23 -1 -12 -11 -5 -10 -8 -18 -19 2 17 3 15 4 16 9 6 13 7 14 20 21 22 0
-23 -1 -12 -11 -9 -6 -13 -7 -14 -20 -8 -18 -21 -19 -22 2 17 3 15 4 16 5 10 0
-23 -1 -12 -11 -9 -6 -13 -7 -14 -20 -21 -22 2 17 3 15 4 16 5 10 8 18 19 0
-23 -1 -12 -11 -9 -6 -13 -10 -20 -8 -18 -21 -19 -22 2 17 3 15 4 16 5 7 14 0
-23 -1 -12 -11 -9 -6 -13 -10 -20 -21 -22 2 17 3 15 4 16 5 7 14 8 18 19 0
-23 -1 -12 -11 -9 -7 -14 -8 -18 -19 2 17 3 15 4 16 5 6 13 10 20 21 22 0
-23 -1 -12 -11 -9 -10 -8 -18 -19 2 17 3 15 4 16 5 6 13 7 14 20 21 22 0
-23 -8 -2 -3 -22 -4 -5 -6 -7 1 14 18 12 15 19 11 16 17 9 13 10 20 21 0
-23 -2 -3 -22 -4 -5 -6 -7 1 14 18 8 12 15 19 11 16 17 9 13 10 20 21 0
-23 -2 -3 -22 -4 -5 -6 -10 1 14 18 12 15 19 11 16 17 9 13 7 20 21 0
-23 -2 -3 -22 -4 -5 -7 1 14 18 12 15 19 11 16 17 9 6 13 10 20 21 0
-23 -2 -3 -22 -4 -5 -10 1 14 18 12 15 19 11 16 17 9 6 13 7 20 21 0
-23 -2 -3 -22 -4 -9 -6 -13 -7 -20 -21 1 14 18 12 15 19 11 16 17 5 10 0
-23 -2 -3 -22 -4 -9 -6 -13 -10 -20 -21 1 14 18 12 15 19 11 16 17 5 7 0
-23 -2 -3 -22 -4 -9 -7 1 14 18 12 15 19 11 16 17 5 6 13 10 20 21 0
-23 -2 -3 -22 -4 -9 -10 1 14 18 12 15 19 11 16 17 5 6 13 7 20 21 0
-23 -2 -3 -22 -21 -9 -20 -6 -13 -7 1 14 18 12 15 19 11 16 4 17 5 10 0
-23 -2 -3 -22 -21 -9 -20 -6 -13 -10 1 14 18 12 15 19 11 16 4 17 5 7 0
-23 -2 -11 -22 -4 -17 -5 -21 -6 -7 1 14 18 12 15 19 3 16 9 13 10 20 0
-23 -2 -11 -22 -4 -17 -5 -21 -6 -10 1 14 18 12 15 19 3 16 9 13 7 20 0
-23 -2 -11 -22 -4 -17 -5 -21 -7 1 14 18 12 15 19 3 16 9 6 13 10 20 0
-23 -2 -11 -22 -4 -17 -5 -21 -10 1 14 18 12 15 19 3 16 9 6 13 7 20 0
-23 -2 -11 -22 -4 -17 -21 -9 -6 -13 -7 -20 1 14 18 12 15 19 3 16 5 10 0
-23 -2 -11 -22 -4 -17 -9 -21 -6 -13 -10 -20 1 14 18 12 15 19 3 16 5 7 0
-23 -2 -11 -22 -4 -17 -9 -21 -7 1 14 18 12 15 19 3 16 5 6 13 10 20 0
-23 -2 -11 -22 -4 -17 -9 -21 -10 1 14 18 12 15 19 3 16 5 6 13 7 20 0
-23 -2 -11 -22 -17 -21 -5 -6 -7 1 14 18 12 15 19 3 16 4 9 13 10 20 0
-23 -2 -11 -22 -17 -21 -5 -6 -10 1 14 18 12 15 19 3 16 4 9 13 7 20 0
-23 -2 -11 -22 -17 -21 -5 -7 1 14 18 12 15 19 3 16 4 9 6 13 10 20 0
-23 -2 -11 -22 -17 -21 -5 -10 1 14 18 12 15 19 3 16 4 9 6 13 7 20 0
-23 -2 -11 -22 -17 -21 -9 -6 -13 -7 -20 1 14 18 12 15 19 3 16 4 5 10 0
-23 -2 -11 -22 -17 -21 -9 -6 -13 -10 -20 1 14 18 12 15 19 3 16 4 5 7 0
-23 -2 -11 -22 -17 -21 -9 -7 1 14 18 12 15 19 3 16 4 5 6 13 10 20 0
-23 -2 -11 -22 -17 -21 -9 -10 1 14 18 12 15 19 3 16 4 5 6 13 7 20 0
-23 -12 -3 -22 -4 -5 -6 -7 1 14 18 2 15 17 19 11 16 9 13 10 20 21 0
-23 -12 -3 -22 -4 -5 -6 -10 1 14 18 2 15 17 19 11 16 9 13 7 20 21 0
-23 -12 -3 -22 -4 -5 -7 1 14 18 2 15 17 19 11 16 9 6 13 10 20 21 0
-23 -12 -3 -22 -4 -5 -10 1 14 18 2 15 17 19 11 16 9 6 13 7 20 21 0
-23 -12 -3 -22 -4 -9 -6 -13 -7 -20 -21 1 14 18 2 15 17 19 11 16 5 10 0
-23 -12 -3 -22 -4 -9 -6 -13 -10 -20 -21 1 14 18 2 15 17 19 11 16 5 7 0
-23 -12 -3 -22 -4 -9 -7 1 14 18 2 15 17 19 11 16 5 6 13 10 20 21 0
-23 -12 -3 -22 -4 -9 -10 1 14 18 2 15 17 19 11 16 5 6 13 7 20 21 0
-23 -12 -3 -22 -21 -9 -20 -6 -13 -7 1 14 18 2 15 17 19 11 16 4 5 10 0
-23 -12 -3 -22 -21 -9 -20 -6 -13 -10 1 14 18 2 15 17 19 11 16 4 5 7 0
-23 -12 -11 -22 -4 -5 -6 -7 1 14 18 2 15 17 19 3 16 9 13 10 20 21 0
-23 -12 -11 -22 -4 -5 -6 -10 1 14 18 2 15 17 19 3 16 9 13 7 20 21 0
-23 -12 -11 -22 -4 -5 -7 1 14 18 2 15 17 19 3 16 9 6 13 10 20 21 0
-23 -12 -11 -22 -4 -5 -10 1 14 18 2 15 17 19 3 16 9 6 13 7 20 21 0
-23 -12 -11 -22 -4 -9 -6 -13 -7 -20 -21 1 14 18 2 15 17 19 3 16 5 10 0
-23 -12 -11 -22 -4 -9 -6 -13 -10 -20 -21 1 14 18 2 15 17 19 3 16 5 7 0
-23 -12 -11 -22 -4 -9 -7 1 14 18 2 15 17 19 3 16 5 6 13 10 20 21 0
-23 -12 -11 -22 -4 -9 -10 1 14 18 2 15 17 19 3 16 5 6 13 7 20 21 0
-23 -12 -11 -22 -21 -9 -20 -6 -13 -7 1 14 18 2 15 17 19 3 16 4 5 10 0
-23 -12 -11 -22 -21 -9 -20 -6 -13 -10 1 14 18 2 15 17 19 3 16 4 5 7 0
